Welcome to the CBC MILP Solver 
Version: 2.10.3 
Build Date: Dec 15 2019 

command line - c:\Users\ollie\Desktop\Top-Drives\.venv\Lib\site-packages\pulp\apis\../solverdir/cbc/win/i64/cbc.exe C:\Users\ollie\AppData\Local\Temp\4f52ee8855674eafb60399ca4bbe43ca-pulp.mps -sec 30 -timeMode elapsed -branch -printingOptions all -solution C:\Users\ollie\AppData\Local\Temp\4f52ee8855674eafb60399ca4bbe43ca-pulp.sol (default strategy 1)
At line 2 NAME          MODEL
At line 3 ROWS
At line 3307 COLUMNS
At line 134243 RHS
At line 137546 BOUNDS
At line 152235 ENDATA
Problem MODEL has 3302 rows, 14688 columns and 101271 elements
Coin0008I MODEL read with 0 errors
seconds was changed from 1e+100 to 30
Option for timeMode changed from cpu to elapsed
Continuous objective value is 122.197 - 0.18 seconds
Cgl0003I 0 fixed, 0 tightened bounds, 2910 strengthened rows, 0 substitutions
Cgl0003I 0 fixed, 0 tightened bounds, 822 strengthened rows, 0 substitutions
Cgl0003I 0 fixed, 0 tightened bounds, 838 strengthened rows, 0 substitutions
Cgl0003I 0 fixed, 0 tightened bounds, 854 strengthened rows, 0 substitutions
Cgl0003I 0 fixed, 0 tightened bounds, 893 strengthened rows, 0 substitutions
Cgl0003I 0 fixed, 0 tightened bounds, 168 strengthened rows, 0 substitutions
Cgl0003I 0 fixed, 0 tightened bounds, 132 strengthened rows, 0 substitutions
Cgl0003I 0 fixed, 0 tightened bounds, 89 strengthened rows, 0 substitutions
Cgl0003I 0 fixed, 0 tightened bounds, 12 strengthened rows, 0 substitutions
Cgl0004I processed model has 3254 rows, 14688 columns (14688 integer (14688 of which binary)) and 93079 elements
Cbc0038I Initial state - 62 integers unsatisfied sum - 6.20998
Cbc0038I Pass   1: (1.49 seconds) suminf.    2.74219 (37) obj. 162.418 iterations 1329
Cbc0038I Pass   2: (1.50 seconds) suminf.    1.93935 (29) obj. 378.932 iterations 414
Cbc0038I Pass   3: (1.51 seconds) suminf.    1.16294 (25) obj. 379.678 iterations 181
Cbc0038I Pass   4: (1.52 seconds) suminf.    0.50000 (13) obj. 2477.86 iterations 395
Cbc0038I Pass   5: (1.53 seconds) suminf.    0.50000 (13) obj. 2477.86 iterations 22
Cbc0038I Pass   6: (1.54 seconds) suminf.    0.38000 (9) obj. 3287.22 iterations 113
Cbc0038I Pass   7: (1.54 seconds) suminf.    0.38000 (9) obj. 3287.22 iterations 34
Cbc0038I Pass   8: (1.55 seconds) suminf.    0.44000 (8) obj. 3641 iterations 125
Cbc0038I Pass   9: (1.56 seconds) suminf.    0.36000 (8) obj. 3641 iterations 74
Cbc0038I Pass  10: (1.57 seconds) suminf.    4.09463 (45) obj. 6564.12 iterations 561
Cbc0038I Pass  11: (1.59 seconds) suminf.    1.83892 (21) obj. 6559.96 iterations 541
Cbc0038I Pass  12: (1.60 seconds) suminf.    0.67333 (13) obj. 6683.22 iterations 173
Cbc0038I Pass  13: (1.60 seconds) suminf.    0.54000 (11) obj. 6683.22 iterations 51
Cbc0038I Pass  14: (1.61 seconds) suminf.    0.24000 (8) obj. 6890 iterations 70
Cbc0038I Pass  15: (1.62 seconds) suminf.    0.48000 (8) obj. 6890 iterations 74
Cbc0038I Pass  16: (1.63 seconds) suminf.    5.01540 (39) obj. 7816.53 iterations 466
Cbc0038I Pass  17: (1.64 seconds) suminf.    2.50914 (26) obj. 7813.61 iterations 435
Cbc0038I Pass  18: (1.65 seconds) suminf.    0.38000 (9) obj. 8819.58 iterations 231
Cbc0038I Pass  19: (1.66 seconds) suminf.    0.38000 (9) obj. 8819.58 iterations 3
Cbc0038I Pass  20: (1.66 seconds) suminf.    0.36000 (8) obj. 8995 iterations 65
Cbc0038I Pass  21: (1.67 seconds) suminf.    0.36000 (8) obj. 8995 iterations 56
Cbc0038I Pass  22: (1.68 seconds) suminf.    1.24274 (23) obj. 9714.83 iterations 380
Cbc0038I Pass  23: (1.70 seconds) suminf.    0.32000 (6) obj. 9712 iterations 567
Cbc0038I Pass  24: (1.71 seconds) suminf.    0.28000 (6) obj. 9712 iterations 38
Cbc0038I Pass  25: (1.72 seconds) suminf.    2.53253 (22) obj. 10072.2 iterations 431
Cbc0038I Pass  26: (1.74 seconds) suminf.    2.07819 (25) obj. 10081.1 iterations 491
Cbc0038I Pass  27: (1.75 seconds) suminf.    2.11911 (17) obj. 13788.8 iterations 129
Cbc0038I Pass  28: (1.75 seconds) suminf.    1.34914 (12) obj. 13788.7 iterations 69
Cbc0038I Pass  29: (1.76 seconds) suminf.    1.70263 (10) obj. 14630 iterations 71
Cbc0038I Pass  30: (1.76 seconds) suminf.    1.61108 (11) obj. 14630 iterations 9
Cbc0038I No solution found this major pass
Cbc0038I Before mini branch and bound, 14492 integers at bound fixed and 0 continuous
Cbc0038I Mini branch and bound did not improve solution (1.79 seconds)
Cbc0038I Full problem 3255 rows 14688 columns, reduced to 3253 rows 14688 columns - too large
Cbc0038I After 2.05 seconds - Feasibility pump exiting - took 0.63 seconds
Cbc0012I Integer solution of 2111 found by DiveCoefficient after 14761 iterations and 0 nodes (8.10 seconds)
Cbc0031I 271 added rows had average density of 90.387454
Cbc0013I At root node, 271 cuts changed objective from 158.70227 to 1730.931 in 29 passes
Cbc0014I Cut generator 0 (Probing) - 1924 row cuts average 2.7 elements, 0 column cuts (94 active)  in 1.757 seconds - new frequency is 1
Cbc0014I Cut generator 1 (Gomory) - 198 row cuts average 293.4 elements, 0 column cuts (0 active)  in 0.287 seconds - new frequency is 1
Cbc0014I Cut generator 2 (Knapsack) - 296 row cuts average 3.4 elements, 0 column cuts (0 active)  in 0.089 seconds - new frequency is 1
Cbc0014I Cut generator 3 (Clique) - 0 row cuts average 0.0 elements, 0 column cuts (0 active)  in 0.008 seconds - new frequency is -100
Cbc0014I Cut generator 4 (MixedIntegerRounding2) - 435 row cuts average 371.0 elements, 0 column cuts (0 active)  in 0.313 seconds - new frequency is 1
Cbc0014I Cut generator 5 (FlowCover) - 0 row cuts average 0.0 elements, 0 column cuts (0 active)  in 0.025 seconds - new frequency is -100
Cbc0014I Cut generator 6 (TwoMirCuts) - 124 row cuts average 41.7 elements, 0 column cuts (0 active)  in 0.151 seconds - new frequency is 1
Cbc0014I Cut generator 7 (ZeroHalf) - 412 row cuts average 591.9 elements, 0 column cuts (0 active)  in 0.630 seconds - new frequency is 1
Cbc0010I After 0 nodes, 1 on tree, 2111 best solution, best possible 1730.931 (8.38 seconds)
Cbc0038I Full problem 3254 rows 14688 columns, reduced to 134 rows 147 columns
Cbc0012I Integer solution of 2110 found by DiveCoefficient after 18829 iterations and 4 nodes (10.49 seconds)
Cbc0012I Integer solution of 2057 found by DiveCoefficient after 19093 iterations and 5 nodes (10.61 seconds)
Cbc0038I Full problem 3254 rows 14688 columns, reduced to 102 rows 86 columns
Cbc0038I Full problem 3254 rows 14688 columns, reduced to 74 rows 60 columns
Cbc0010I After 100 nodes, 37 on tree, 2057 best solution, best possible 1730.931 (16.21 seconds)
Cbc0038I Full problem 3254 rows 14688 columns, reduced to 69 rows 57 columns
Cbc0010I After 200 nodes, 36 on tree, 2057 best solution, best possible 1730.931 (18.09 seconds)
Cbc0038I Full problem 3254 rows 14688 columns, reduced to 84 rows 73 columns
Cbc0010I After 300 nodes, 29 on tree, 2057 best solution, best possible 1730.931 (20.37 seconds)
Cbc0038I Full problem 3254 rows 14688 columns, reduced to 106 rows 89 columns
Cbc0010I After 400 nodes, 28 on tree, 2057 best solution, best possible 1730.931 (22.30 seconds)
Cbc0010I After 500 nodes, 41 on tree, 2057 best solution, best possible 1730.931 (24.95 seconds)
Cbc0038I Full problem 3254 rows 14688 columns, reduced to 76 rows 63 columns
Cbc0010I After 600 nodes, 34 on tree, 2057 best solution, best possible 1730.931 (27.13 seconds)
Cbc0020I Exiting on maximum time
Cbc0005I Partial search - best objective 2057 (best possible 1730.931), took 57021 iterations and 673 nodes (28.81 seconds)
Cbc0032I Strong branching done 1826 times (15439 iterations), fathomed 0 nodes and fixed 4 variables
Cbc0035I Maximum depth 50, 91834 variables fixed on reduced cost
Cuts at root node changed objective from 158.702 to 1730.93
Probing was tried 529 times and created 6243 cuts of which 94 were active after adding rounds of cuts (2.351 seconds)
Gomory was tried 529 times and created 203 cuts of which 0 were active after adding rounds of cuts (0.837 seconds)
Knapsack was tried 528 times and created 890 cuts of which 0 were active after adding rounds of cuts (2.291 seconds)
Clique was tried 29 times and created 0 cuts of which 0 were active after adding rounds of cuts (0.008 seconds)
MixedIntegerRounding2 was tried 528 times and created 1311 cuts of which 0 were active after adding rounds of cuts (2.663 seconds)
FlowCover was tried 29 times and created 0 cuts of which 0 were active after adding rounds of cuts (0.025 seconds)
TwoMirCuts was tried 528 times and created 141 cuts of which 0 were active after adding rounds of cuts (1.138 seconds)
ZeroHalf was tried 528 times and created 1260 cuts of which 0 were active after adding rounds of cuts (5.347 seconds)
ImplicationCuts was tried 37 times and created 535 cuts of which 0 were active after adding rounds of cuts (0.035 seconds)

Result - Stopped on time limit

Objective value:                2057.00000000
Lower bound:                    1730.931
Gap:                            0.19
Enumerated nodes:               673
Total iterations:               57021
Time (CPU seconds):             29.02
Time (Wallclock seconds):       29.02

Option for printingOptions changed from normal to all
Total time (CPU seconds):       29.11   (Wallclock seconds):       29.11

